NAME: cuum870.tsp
TYPE: TSP
COMMENT: User-generated TSP file
DIMENSION: 870
EDGE_WEIGHT_TYPE: EUC_2D
NODE_COORD_SECTION
1 812.0 824.0
2 580.0 541.0
3 653.0 490.0
4 263.0 756.0
5 693.0 704.0
6 579.0 734.0
7 290.0 619.0
8 197.0 217.0
9 853.0 37.0
10 341.0 45.0
11 531.0 13.0
12 709.0 741.0
13 519.0 505.0
14 299.0 657.0
15 173.0 362.0
16 696.0 712.0
17 635.0 516.0
18 554.0 288.0
19 508.0 511.0
20 530.0 844.0
21 97.0 172.0
22 783.0 817.0
23 787.0 215.0
24 552.0 146.0
25 356.0 350.0
26 847.0 79.0
27 420.0 640.0
28 63.0 412.0
29 149.0 654.0
30 201.0 609.0
31 165.0 764.0
32 588.0 688.0
33 518.0 74.0
34 69.0 455.0
35 550.0 541.0
36 663.0 791.0
37 46.0 616.0
38 588.0 156.0
39 604.0 695.0
40 146.0 80.0
41 500.0 278.0
42 357.0 187.0
43 325.0 292.0
44 842.0 389.0
45 844.0 584.0
46 408.0 693.0
47 316.0 630.0
48 765.0 81.0
49 516.0 114.0
50 10.0 534.0
51 123.0 253.0
52 483.0 280.0
53 208.0 736.0
54 435.0 600.0
55 589.0 505.0
56 546.0 458.0
57 225.0 190.0
58 426.0 32.0
59 191.0 266.0
60 463.0 5.0
61 25.0 213.0
62 368.0 224.0
63 352.0 125.0
64 554.0 297.0
65 196.0 746.0
66 681.0 489.0
67 40.0 821.0
68 181.0 771.0
69 520.0 565.0
70 213.0 278.0
71 526.0 644.0
72 689.0 148.0
73 788.0 504.0
74 701.0 510.0
75 471.0 508.0
76 360.0 466.0
77 471.0 205.0
78 184.0 253.0
79 262.0 753.0
80 267.0 611.0
81 516.0 86.0
82 662.0 838.0
83 163.0 707.0
84 514.0 828.0
85 765.0 141.0
86 115.0 301.0
87 613.0 441.0
88 618.0 773.0
89 178.0 102.0
90 112.0 807.0
91 521.0 708.0
92 227.0 671.0
93 522.0 783.0
94 653.0 527.0
95 625.0 867.0
96 284.0 346.0
97 621.0 735.0
98 429.0 712.0
99 337.0 220.0
100 724.0 666.0
101 234.0 626.0
102 684.0 412.0
103 279.0 365.0
104 32.0 226.0
105 192.0 482.0
106 119.0 407.0
107 313.0 56.0
108 470.0 9.0
109 741.0 693.0
110 526.0 311.0
111 437.0 247.0
112 376.0 161.0
113 80.0 760.0
114 761.0 232.0
115 241.0 517.0
116 510.0 171.0
117 436.0 869.0
118 699.0 370.0
119 61.0 26.0
120 652.0 65.0
121 697.0 677.0
122 66.0 637.0
123 656.0 611.0
124 445.0 143.0
125 222.0 207.0
126 437.0 542.0
127 813.0 97.0
128 454.0 164.0
129 467.0 114.0
130 703.0 98.0
131 687.0 709.0
132 134.0 406.0
133 132.0 25.0
134 762.0 213.0
135 822.0 528.0
136 296.0 747.0
137 626.0 259.0
138 250.0 753.0
139 369.0 213.0
140 473.0 589.0
141 850.0 673.0
142 241.0 566.0
143 300.0 97.0
144 297.0 75.0
145 626.0 675.0
146 742.0 845.0
147 245.0 172.0
148 273.0 301.0
149 454.0 503.0
150 828.0 465.0
151 605.0 482.0
152 308.0 568.0
153 143.0 97.0
154 335.0 402.0
155 22.0 743.0
156 22.0 776.0
157 512.0 549.0
158 358.0 332.0
159 194.0 11.0
160 134.0 300.0
161 718.0 457.0
162 158.0 666.0
163 394.0 786.0
164 698.0 783.0
165 703.0 426.0
166 332.0 377.0
167 648.0 823.0
168 76.0 742.0
169 272.0 176.0
170 754.0 272.0
171 187.0 759.0
172 462.0 551.0
173 829.0 765.0
174 291.0 432.0
175 571.0 619.0
176 639.0 221.0
177 295.0 118.0
178 707.0 112.0
179 612.0 92.0
180 801.0 400.0
181 422.0 173.0
182 118.0 404.0
183 722.0 262.0
184 107.0 143.0
185 717.0 122.0
186 490.0 861.0
187 483.0 13.0
188 11.0 288.0
189 545.0 647.0
190 375.0 155.0
191 259.0 576.0
192 666.0 838.0
193 862.0 345.0
194 109.0 74.0
195 244.0 475.0
196 620.0 165.0
197 653.0 171.0
198 784.0 91.0
199 443.0 454.0
200 486.0 181.0
201 660.0 658.0
202 135.0 434.0
203 386.0 564.0
204 415.0 67.0
205 603.0 565.0
206 260.0 795.0
207 373.0 785.0
208 848.0 860.0
209 790.0 120.0
210 727.0 694.0
211 541.0 304.0
212 427.0 837.0
213 237.0 727.0
214 821.0 765.0
215 621.0 61.0
216 113.0 568.0
217 772.0 747.0
218 659.0 820.0
219 63.0 67.0
220 815.0 776.0
221 865.0 492.0
222 360.0 128.0
223 370.0 634.0
224 585.0 615.0
225 347.0 536.0
226 172.0 337.0
227 200.0 186.0
228 406.0 715.0
229 490.0 562.0
230 764.0 846.0
231 637.0 115.0
232 176.0 268.0
233 581.0 94.0
234 368.0 293.0
235 107.0 92.0
236 543.0 770.0
237 385.0 376.0
238 346.0 409.0
239 524.0 625.0
240 418.0 65.0
241 851.0 181.0
242 816.0 445.0
243 257.0 243.0
244 177.0 162.0
245 345.0 260.0
246 37.0 787.0
247 834.0 353.0
248 14.0 195.0
249 836.0 501.0
250 98.0 291.0
251 847.0 650.0
252 667.0 469.0
253 286.0 771.0
254 240.0 8.0
255 610.0 678.0
256 37.0 326.0
257 463.0 51.0
258 61.0 63.0
259 443.0 340.0
260 185.0 639.0
261 218.0 333.0
262 63.0 237.0
263 195.0 522.0
264 224.0 664.0
265 234.0 797.0
266 565.0 676.0
267 647.0 812.0
268 125.0 615.0
269 839.0 543.0
270 295.0 556.0
271 575.0 120.0
272 649.0 317.0
273 227.0 98.0
274 244.0 847.0
275 239.0 117.0
276 538.0 10.0
277 513.0 139.0
278 530.0 441.0
279 254.0 359.0
280 567.0 372.0
281 203.0 177.0
282 772.0 333.0
283 51.0 590.0
284 381.0 848.0
285 340.0 349.0
286 432.0 100.0
287 533.0 566.0
288 576.0 742.0
289 761.0 828.0
290 36.0 340.0
291 333.0 309.0
292 287.0 547.0
293 119.0 10.0
294 431.0 110.0
295 565.0 576.0
296 245.0 722.0
297 260.0 680.0
298 505.0 48.0
299 88.0 837.0
300 730.0 714.0
301 865.0 715.0
302 7.0 7.0
303 68.0 633.0
304 657.0 746.0
305 579.0 826.0
306 406.0 729.0
307 450.0 688.0
308 543.0 310.0
309 124.0 198.0
310 208.0 290.0
311 174.0 20.0
312 121.0 696.0
313 568.0 772.0
314 661.0 669.0
315 175.0 136.0
316 33.0 356.0
317 440.0 796.0
318 626.0 629.0
319 695.0 609.0
320 752.0 498.0
321 182.0 481.0
322 660.0 748.0
323 266.0 352.0
324 132.0 868.0
325 580.0 849.0
326 241.0 119.0
327 810.0 81.0
328 198.0 333.0
329 706.0 42.0
330 120.0 534.0
331 436.0 110.0
332 264.0 659.0
333 522.0 598.0
334 855.0 20.0
335 623.0 478.0
336 684.0 513.0
337 639.0 253.0
338 446.0 758.0
339 457.0 6.0
340 253.0 119.0
341 140.0 340.0
342 78.0 561.0
343 321.0 19.0
344 474.0 260.0
345 499.0 689.0
346 633.0 472.0
347 706.0 438.0
348 817.0 36.0
349 727.0 466.0
350 469.0 479.0
351 714.0 439.0
352 312.0 116.0
353 192.0 384.0
354 598.0 24.0
355 227.0 812.0
356 441.0 411.0
357 175.0 360.0
358 475.0 735.0
359 387.0 455.0
360 737.0 462.0
361 190.0 158.0
362 793.0 842.0
363 834.0 312.0
364 191.0 193.0
365 719.0 427.0
366 257.0 736.0
367 485.0 566.0
368 229.0 703.0
369 245.0 538.0
370 608.0 283.0
371 188.0 515.0
372 8.0 49.0
373 538.0 391.0
374 59.0 383.0
375 303.0 323.0
376 513.0 211.0
377 316.0 225.0
378 746.0 709.0
379 374.0 762.0
380 449.0 655.0
381 128.0 686.0
382 858.0 744.0
383 644.0 53.0
384 459.0 716.0
385 719.0 793.0
386 448.0 335.0
387 688.0 50.0
388 559.0 784.0
389 210.0 253.0
390 300.0 421.0
391 434.0 33.0
392 729.0 528.0
393 591.0 740.0
394 13.0 704.0
395 365.0 349.0
396 685.0 540.0
397 313.0 537.0
398 626.0 295.0
399 706.0 437.0
400 31.0 215.0
401 866.0 827.0
402 595.0 670.0
403 11.0 759.0
404 710.0 386.0
405 780.0 522.0
406 167.0 455.0
407 400.0 403.0
408 650.0 372.0
409 547.0 761.0
410 757.0 289.0
411 180.0 307.0
412 440.0 373.0
413 672.0 357.0
414 388.0 139.0
415 254.0 679.0
416 162.0 8.0
417 15.0 4.0
418 467.0 470.0
419 327.0 202.0
420 223.0 786.0
421 700.0 34.0
422 370.0 333.0
423 776.0 619.0
424 589.0 690.0
425 148.0 821.0
426 690.0 831.0
427 526.0 128.0
428 140.0 90.0
429 178.0 634.0
430 25.0 563.0
431 245.0 624.0
432 267.0 650.0
433 769.0 95.0
434 468.0 694.0
435 228.0 563.0
436 815.0 454.0
437 226.0 496.0
438 297.0 102.0
439 738.0 422.0
440 740.0 798.0
441 760.0 149.0
442 399.0 250.0
443 286.0 636.0
444 63.0 771.0
445 386.0 253.0
446 516.0 276.0
447 392.0 168.0
448 384.0 232.0
449 591.0 423.0
450 481.0 516.0
451 82.0 192.0
452 90.0 596.0
453 9.0 87.0
454 413.0 22.0
455 248.0 193.0
456 440.0 831.0
457 530.0 327.0
458 400.0 268.0
459 336.0 297.0
460 664.0 376.0
461 642.0 560.0
462 365.0 348.0
463 225.0 216.0
464 664.0 729.0
465 671.0 435.0
466 848.0 82.0
467 817.0 858.0
468 286.0 812.0
469 756.0 851.0
470 255.0 48.0
471 278.0 407.0
472 177.0 181.0
473 304.0 714.0
474 482.0 821.0
475 811.0 38.0
476 672.0 869.0
477 432.0 235.0
478 761.0 109.0
479 10.0 147.0
480 181.0 31.0
481 758.0 208.0
482 766.0 550.0
483 868.0 846.0
484 14.0 706.0
485 163.0 69.0
486 35.0 588.0
487 547.0 669.0
488 564.0 165.0
489 67.0 60.0
490 24.0 85.0
491 555.0 340.0
492 172.0 383.0
493 260.0 432.0
494 522.0 275.0
495 475.0 361.0
496 842.0 370.0
497 187.0 52.0
498 759.0 786.0
499 503.0 497.0
500 450.0 153.0
501 404.0 530.0
502 630.0 706.0
503 811.0 292.0
504 198.0 431.0
505 827.0 596.0
506 337.0 394.0
507 669.0 344.0
508 1.0 530.0
509 24.0 818.0
510 451.0 599.0
511 779.0 473.0
512 50.0 721.0
513 363.0 70.0
514 320.0 458.0
515 114.0 662.0
516 314.0 600.0
517 467.0 842.0
518 697.0 579.0
519 736.0 142.0
520 198.0 748.0
521 490.0 751.0
522 297.0 559.0
523 641.0 701.0
524 769.0 283.0
525 329.0 780.0
526 555.0 395.0
527 506.0 666.0
528 137.0 27.0
529 784.0 832.0
530 136.0 573.0
531 139.0 840.0
532 343.0 362.0
533 176.0 356.0
534 15.0 513.0
535 865.0 123.0
536 507.0 447.0
537 706.0 843.0
538 809.0 408.0
539 81.0 32.0
540 789.0 746.0
541 165.0 826.0
542 622.0 78.0
543 835.0 825.0
544 582.0 152.0
545 54.0 645.0
546 219.0 262.0
547 567.0 636.0
548 802.0 335.0
549 758.0 596.0
550 543.0 17.0
551 26.0 188.0
552 447.0 24.0
553 710.0 91.0
554 50.0 750.0
555 699.0 316.0
556 454.0 706.0
557 11.0 620.0
558 391.0 623.0
559 701.0 513.0
560 764.0 835.0
561 162.0 268.0
562 413.0 308.0
563 87.0 305.0
564 241.0 596.0
565 835.0 485.0
566 701.0 238.0
567 442.0 444.0
568 745.0 791.0
569 232.0 260.0
570 412.0 178.0
571 153.0 232.0
572 510.0 503.0
573 818.0 434.0
574 747.0 164.0
575 446.0 727.0
576 604.0 823.0
577 623.0 628.0
578 792.0 665.0
579 769.0 521.0
580 794.0 199.0
581 46.0 744.0
582 638.0 762.0
583 457.0 133.0
584 740.0 290.0
585 780.0 574.0
586 771.0 147.0
587 318.0 814.0
588 404.0 731.0
589 31.0 10.0
590 485.0 756.0
591 57.0 36.0
592 494.0 97.0
593 469.0 650.0
594 416.0 41.0
595 596.0 417.0
596 549.0 379.0
597 865.0 22.0
598 602.0 751.0
599 180.0 636.0
600 758.0 557.0
601 700.0 647.0
602 68.0 708.0
603 68.0 383.0
604 277.0 725.0
605 654.0 203.0
606 762.0 301.0
607 562.0 29.0
608 317.0 114.0
609 302.0 338.0
610 850.0 518.0
611 830.0 689.0
612 565.0 449.0
613 118.0 67.0
614 83.0 85.0
615 89.0 708.0
616 625.0 317.0
617 250.0 851.0
618 416.0 170.0
619 756.0 228.0
620 841.0 396.0
621 459.0 616.0
622 240.0 791.0
623 427.0 767.0
624 467.0 480.0
625 32.0 225.0
626 615.0 546.0
627 60.0 168.0
628 388.0 141.0
629 526.0 827.0
630 18.0 305.0
631 538.0 1.0
632 601.0 517.0
633 345.0 597.0
634 287.0 166.0
635 796.0 687.0
636 668.0 521.0
637 242.0 537.0
638 531.0 238.0
639 787.0 513.0
640 719.0 672.0
641 677.0 835.0
642 316.0 633.0
643 279.0 548.0
644 788.0 103.0
645 644.0 157.0
646 437.0 487.0
647 276.0 508.0
648 148.0 453.0
649 728.0 110.0
650 452.0 155.0
651 199.0 33.0
652 305.0 51.0
653 505.0 778.0
654 799.0 359.0
655 8.0 577.0
656 766.0 158.0
657 606.0 723.0
658 47.0 577.0
659 248.0 411.0
660 467.0 496.0
661 831.0 202.0
662 86.0 234.0
663 426.0 630.0
664 321.0 417.0
665 68.0 529.0
666 448.0 269.0
667 258.0 142.0
668 680.0 206.0
669 550.0 793.0
670 368.0 220.0
671 545.0 807.0
672 316.0 647.0
673 100.0 808.0
674 273.0 198.0
675 217.0 170.0
676 515.0 350.0
677 779.0 532.0
678 868.0 132.0
679 243.0 254.0
680 13.0 315.0
681 142.0 212.0
682 701.0 22.0
683 161.0 410.0
684 625.0 450.0
685 422.0 555.0
686 361.0 793.0
687 29.0 35.0
688 522.0 809.0
689 471.0 271.0
690 217.0 270.0
691 665.0 480.0
692 123.0 687.0
693 719.0 690.0
694 705.0 174.0
695 37.0 370.0
696 164.0 190.0
697 264.0 552.0
698 798.0 405.0
699 383.0 92.0
700 836.0 768.0
701 864.0 256.0
702 363.0 411.0
703 294.0 30.0
704 336.0 114.0
705 305.0 833.0
706 624.0 805.0
707 116.0 665.0
708 39.0 729.0
709 120.0 368.0
710 118.0 448.0
711 829.0 606.0
712 630.0 90.0
713 21.0 126.0
714 238.0 471.0
715 88.0 57.0
716 52.0 143.0
717 158.0 380.0
718 713.0 138.0
719 41.0 574.0
720 59.0 254.0
721 513.0 321.0
722 668.0 420.0
723 855.0 722.0
724 768.0 670.0
725 816.0 327.0
726 563.0 290.0
727 218.0 77.0
728 522.0 7.0
729 383.0 385.0
730 164.0 102.0
731 473.0 846.0
732 738.0 764.0
733 39.0 290.0
734 474.0 528.0
735 112.0 552.0
736 110.0 513.0
737 667.0 216.0
738 119.0 504.0
739 747.0 421.0
740 822.0 639.0
741 781.0 20.0
742 240.0 289.0
743 758.0 592.0
744 862.0 165.0
745 547.0 327.0
746 664.0 89.0
747 812.0 178.0
748 171.0 438.0
749 829.0 607.0
750 614.0 470.0
751 414.0 310.0
752 378.0 726.0
753 377.0 714.0
754 88.0 273.0
755 796.0 815.0
756 364.0 734.0
757 528.0 640.0
758 703.0 797.0
759 15.0 309.0
760 296.0 709.0
761 251.0 289.0
762 427.0 674.0
763 602.0 692.0
764 2.0 722.0
765 754.0 166.0
766 605.0 283.0
767 41.0 458.0
768 840.0 193.0
769 382.0 736.0
770 784.0 440.0
771 372.0 290.0
772 620.0 865.0
773 211.0 54.0
774 802.0 757.0
775 743.0 707.0
776 466.0 792.0
777 748.0 28.0
778 14.0 238.0
779 352.0 28.0
780 266.0 846.0
781 428.0 820.0
782 112.0 644.0
783 781.0 31.0
784 517.0 467.0
785 154.0 310.0
786 416.0 453.0
787 793.0 504.0
788 292.0 576.0
789 655.0 674.0
790 366.0 728.0
791 150.0 868.0
792 857.0 91.0
793 130.0 569.0
794 52.0 402.0
795 39.0 664.0
796 486.0 128.0
797 381.0 138.0
798 804.0 646.0
799 67.0 804.0
800 812.0 590.0
801 565.0 773.0
802 4.0 849.0
803 749.0 132.0
804 845.0 413.0
805 242.0 774.0
806 803.0 130.0
807 657.0 136.0
808 594.0 484.0
809 603.0 390.0
810 127.0 178.0
811 850.0 610.0
812 122.0 671.0
813 487.0 119.0
814 814.0 115.0
815 430.0 790.0
816 120.0 530.0
817 405.0 728.0
818 455.0 802.0
819 411.0 333.0
820 109.0 177.0
821 279.0 495.0
822 492.0 345.0
823 29.0 527.0
824 852.0 608.0
825 479.0 454.0
826 533.0 206.0
827 12.0 779.0
828 526.0 493.0
829 506.0 87.0
830 229.0 459.0
831 77.0 514.0
832 388.0 413.0
833 108.0 147.0
834 410.0 714.0
835 391.0 493.0
836 117.0 92.0
837 306.0 663.0
838 384.0 825.0
839 325.0 84.0
840 216.0 69.0
841 716.0 671.0
842 392.0 813.0
843 422.0 418.0
844 837.0 383.0
845 600.0 599.0
846 64.0 800.0
847 461.0 631.0
848 699.0 742.0
849 824.0 610.0
850 787.0 424.0
851 627.0 538.0
852 739.0 427.0
853 859.0 168.0
854 826.0 464.0
855 804.0 522.0
856 329.0 203.0
857 340.0 700.0
858 147.0 460.0
859 308.0 821.0
860 410.0 608.0
861 511.0 110.0
862 634.0 82.0
863 853.0 139.0
864 222.0 35.0
865 571.0 486.0
866 10.0 407.0
867 537.0 179.0
868 609.0 101.0
869 729.0 2.0
870 814.0 560.0
EOF





